 C Ta 
 1.0000000000000000
     4.4995866716193564    0.0000000000000000    0.0000000000000000
     0.0000000000000000    4.4995866716193564    0.0000000000000000
     0.0000000000000000    0.0000000000000000    4.4995866716193564
   4   4
Cartesian
  0.0000000000000000  0.0000000000000000  2.2497933358096782
  0.0000000000000000  2.2497933358096782  0.0000000000000000
  2.2497933358096782  0.0000000000000000  0.0000000000000000
  2.2497933358096782  2.2497933358096782  2.2497933358096782
  0.0000000000000000  0.0000000000000000  0.0000000000000000
  0.0000000000000000  2.2497933358096782  2.2497933358096782
  2.2497933358096782  0.0000000000000000  2.2497933358096782
  2.2497933358096782  2.2497933358096782  0.0000000000000000
