INCAR created by Atomic Simulation Environment
 ENCUT = 350.000000
 SIGMA = 0.010000
 EDIFFG = -5.00e-02
 PREC = Normal
 ISMEAR = 0
 NSW = 50
 IBRION = 1
