 H  N                                   
   1.00000000000000     
     8.0000000000000000    0.0000000000000000    0.0000000000000000
     0.0000000000000000    8.0000000000000000    0.0000000000000000
     0.0000000000000000    0.0000000000000000    8.0000000000000000
   H    N 
     3     1
Direct
  0.5000000000000000  0.5890607564349283  0.4754035671872168
  0.6025600025893021  0.4114257147982749  0.4753840830519873
  0.3974399974106979  0.4114257147982749  0.4753840830519873
  0.5000000000000000  0.4706214389685224  0.5252911417088129
 
  0.00000000E+00  0.00000000E+00  0.00000000E+00
  0.00000000E+00  0.00000000E+00  0.00000000E+00
  0.00000000E+00  0.00000000E+00  0.00000000E+00
  0.00000000E+00  0.00000000E+00  0.00000000E+00
