 H  N 
 1.0000000000000000
     8.0000000000000000    0.0000000000000000    0.0000000000000000
     0.0000000000000000    8.0000000000000000    0.0000000000000000
     0.0000000000000000    0.0000000000000000    8.0000000000000000
   3   1
Cartesian
  4.0000000000000000  4.7047980000000003  3.8058515000000002
  4.8138310000000004  3.2952020000000002  3.8058515000000002
  3.1861690000000000  3.2952020000000002  3.8058515000000002
  4.0000000000000000  3.7650670000000002  4.1941484999999998
