Ta 
 1.0000000000000000
     3.3100000000000001    0.0000000000000000    0.0000000000000000
     0.0000000000000000    3.3100000000000001    0.0000000000000000
     0.0000000000000000    0.0000000000000000    3.3100000000000001
   2
Cartesian
  0.0000000000000000  0.0000000000000000  0.0000000000000000
  1.6550000000000000  1.6550000000000000  1.6550000000000000
