 C                                      
   1.00000000000000     
     2.4589749379499142    0.0000000000000000    0.0000000000000000
    -1.2294874689749566    2.1295347635338895    0.0000000000000000
     0.0000000000000000    0.0000000000000000    6.7200450986259304
   C 
     4
Direct
  0.0000000000000000  0.0000000000000000  0.0000000000000000
  0.3333333333333357  0.6666666666666643  0.0000000000000000
  0.3333333333333357  0.6666666666666643  0.5000000000000000
  0.6666666666666643  0.3333333333333357  0.5000000000000000
 
  0.00000000E+00  0.00000000E+00  0.00000000E+00
  0.00000000E+00  0.00000000E+00  0.00000000E+00
  0.00000000E+00  0.00000000E+00  0.00000000E+00
  0.00000000E+00  0.00000000E+00  0.00000000E+00
