 C 
 1.0000000000000000
     2.4611999999999998    0.0000000000000000    0.0000000000000000
    -1.2305999999999995    2.1314617237942604    0.0000000000000000
     0.0000000000000000    0.0000000000000000    6.7079000000000004
   4
Cartesian
  0.0000000000000000  0.0000000000000000  0.0000000000000000
  0.0000000000000003  1.4209744825295070  0.0000000000000000
  0.0000000000000005  1.4209744825295074  3.3539499999999998
  1.2306000000000001  0.7104872412647538  3.3539499999999998
