INCAR created by Atomic Simulation Environment
 ENCUT = 300.000000
 PREC = Normal
 NBANDS = 9
