Ta 
 1.0000000000000000
     3.2999999999999998    0.0000000000000000    0.0000000000000000
     0.0000000000000000    3.2999999999999998    0.0000000000000000
     0.0000000000000000    0.0000000000000000    3.2999999999999998
   2
Cartesian
  0.0000000000000000  0.0000000000000000  0.0000000000000000
  1.6499999999999999  1.6499999999999999  1.6499999999999999
